50
19831

74 533
155 307
198 940
507 367
586 620
230 38
228 838
69 495
263 864
353 673
739 958
1000 254
162 717
113 951
916 652
647 237
178 528
757 277
645 959
971 981
730 806
229 336
176 202
697 95
401 475
701 882
248 453
960 356
700 99
123 225
209 235
565 578
222 349
1000 546
456 823
169 776
963 687
857 409
117 826
23 701
413 982
862 868
663 672
573 878
706 278
99 951
695 825
955 334
886 734
50 285
